9,1,1,1,7,2,5,2,2,3,7,4,3,4,1,4,9,3,5,4,4,4,4,5;3,1,6,1,4,2,1,3,6,2,10,3,9,4,5,5,10,5;2,1,4,1,8,2,8,3,10,2,7,5,1,5,10,4,6,5;5,1,8,1,7,3,1,2,5,3,2,5,8,4,3,5,9,5;7,1,2,2,10,1,3,2,3,3,2,4,9,2,4,3,6,3,6,4,8,5;
